100
128
31
2
14
27
22
2
9
12
10
20
19
13
27
21
34
20
26
20
11
11
17
11
5
22
27
6
57
9
24
32
7
64
24
1
63
49
21
17
40
46
30
52
39
42
17
41
53
30
44
33
34
38
24
59
19
50
21
45
20
31
32
51
21
56
14
23
56
64
64
35
54
26
48
37
27
35
29
7
50
26
62
31
52
33
44
27
32
23
34
44
60
29
50
39
58
26
44
54
10
64